p tw 82 194
0 1
0 2
0 4
0 12
0 78
1 2
1 23
2 13
2 17
2 21
3 4
3 5
3 6
3 18
3 19
3 20
4 5
4 6
4 12
4 78
5 6
5 64
5 70
6 59
7 8
7 9
7 10
7 40
7 67
8 9
8 10
8 41
8 66
8 81
9 10
9 38
9 57
9 58
10 42
11 12
11 13
11 39
12 13
12 78
13 17
13 21
14 15
14 32
14 46
14 51
14 75
15 47
16 17
16 29
16 43
16 44
17 21
18 19
18 20
18 59
18 64
19 20
19 70
20 52
20 68
20 69
21 22
21 23
22 23
22 34
22 54
22 57
22 63
24 25
24 31
24 32
25 51
25 52
25 53
26 27
26 28
26 65
26 72
26 81
27 28
27 60
28 73
28 79
28 80
29 30
29 43
29 44
30 55
31 32
31 48
31 53
31 74
32 46
32 51
32 75
33 34
33 58
34 54
34 57
34 63
35 36
35 37
35 38
35 43
35 54
35 55
35 56
36 37
36 38
36 77
37 38
37 44
37 63
37 71
38 57
38 58
39 78
40 41
40 42
40 67
41 42
41 66
41 81
43 44
43 54
43 55
43 56
44 63
44 71
45 46
45 47
45 48
45 80
46 47
46 48
46 51
46 75
47 48
48 53
48 74
49 50
49 69
50 68
50 74
50 75
50 76
51 52
51 53
51 75
52 53
52 68
52 69
53 74
54 55
54 56
54 57
54 63
55 56
56 71
56 77
57 58
57 63
59 64
60 76
60 79
61 62
61 65
62 72
62 73
63 71
64 70
65 72
65 81
66 67
66 81
68 69
68 74
68 75
68 76
71 77
72 73
72 81
73 79
73 80
74 75
74 76
75 76
76 79
79 80
